log log.P$P_T$T_RS

atom_style atomic 
units metal
boundary p p p 
#atom_modify sort 0 0.0 
newton on 

read_data data_RS.lammps 
replicate 10 10 20

### interactions

pair_style flare 
pair_coeff * * lmp.flare 

compute unc all flare/std/atom L_inv_lmp.flare sparse_desc_lmp.flare
compute MaxUnc all reduce max c_unc

mass 1 12.011000 
mass 2 28.085000 

thermo_style custom step c_MaxUnc
thermo 1000
timestep 0.0005

dump 1 all custom 1 P${P}_T${T}_RS_rerun.txt id type x y z c_unc
rerun P${P}_T${T}_RS_4nph.txt dump x y z
